<instance format="XCSP3" type="CSP">
  <variables>
    <var id="x0"> 1 8 9 14 </var>
    <var id="x1"> 1 2 4 9 14 </var>
    <var id="x2"> 1 4 7 8 14 </var>
    <var id="x3"> 1 4 14 </var>
    <var id="x4"> 2 4 8 14 </var>
    <var id="x5"> 1 9 </var>
    <var id="x6"> 1 2 4 7 8 </var>
    <var id="x7"> 0 1 4 9 11 </var>
    <var id="x8"> 1 9 13 14 </var>
    <var id="x9"> 1 6 9 </var>
    <var id="x10"> 4 6 9 11 </var>
    <var id="x11"> 0 1 4 6 11 14 </var>
    <var id="x12"> 4 11 13 14 </var>
    <var id="x13"> 0 4 9 14 </var>
    <var id="x14"> 0 1 4 13 14 </var>
    <var id="x15"> 9 14 </var>
    <var id="x16"> 8 12 14 </var>
    <var id="x17"> 3 9 12 </var>
    <var id="x18"> 6 8 12 14 </var>
    <var id="x19"> 6..8 </var>
    <var id="x20"> 7..9 14 </var>
    <var id="x21"> 8 14 </var>
    <var id="x22"> 0 1 4 11 </var>
    <var id="x23"> 0 1 4 5 </var>
    <var id="x24"> 1 5 10 12 </var>
    <var id="x25"> 4 11 </var>
    <var id="x26"> 1 4 10 11 </var>
    <var id="x27"> 0 1 4 5 11 </var>
    <var id="x28"> 0 1 4 </var>
    <var id="x29"> 3 10 11 </var>
    <var id="x30"> 6 11 </var>
    <var id="x31"> 2 11 13 </var>
    <var id="x32"> 6 10 </var>
    <var id="x33"> 2 6 10 </var>
    <var id="x34"> 3 9 13 </var>
    <var id="x35"> 2 13 </var>
    <var id="x36"> 1 7 12 </var>
    <var id="x37"> 4 7 8 </var>
    <var id="x38"> 1 3 4 7 8 12 14 </var>
    <var id="x39"> 1 3 12 </var>
    <var id="x40"> 1 4 7 8 </var>
    <var id="x41"> 3 8 12 14 </var>
    <var id="x42"> 4 7 8 14 </var>
    <var id="x43"> 1 4 8 </var>
    <var id="x44"> 4 6..8 </var>
    <var id="x45"> 1 4 7 </var>
    <var id="x46"> 1 4..6 </var>
    <var id="x47"> 1 4 6..8 </var>
    <var id="x48"> 8 12 </var>
    <var id="x49"> 4 5 7 8 </var>
    <var id="x50"> 5 8 14 </var>
    <var id="x51"> 0 2 4 5 14 </var>
    <var id="x52"> 2 4 6 8 </var>
    <var id="x53"> 4 14 </var>
    <var id="x54"> 0 4..6 14 </var>
    <var id="x55"> 2 4 8 14 </var>
    <var id="x56"> 0 </var>
    <var id="x57"> 1 8 9 13 14 </var>
    <var id="x58"> 1 4 14 </var>
    <var id="x59"> 1 4 8 14 </var>
    <var id="x60"> 0 1 9 13 </var>
    <var id="x61"> 0 4 8 14 </var>
    <var id="x62"> 0 8 9 13 14 </var>
    <var id="x63"> 0 1 4 8 13 14 </var>
    <var id="x64"> 4 8 9 </var>
    <var id="x65"> 2 4 7..9 </var>
    <var id="x66"> 4 7 8 14 </var>
    <var id="x67"> 4 8 10 14 </var>
    <var id="x68"> 8 9 14 </var>
    <var id="x69"> 4 7..10 14 </var>
    <var id="x70"> 2 4 8 14 </var>
    <var id="x71"> 0 1 3 8 9 </var>
    <var id="x72"> 0 1 5 9 14 </var>
    <var id="x73"> 1 5 9 </var>
    <var id="x74"> 1 3 8 14 </var>
    <var id="x75"> 1 8 </var>
    <var id="x76"> 0 3 8 9 14 </var>
    <var id="x77"> 0 5 8 9 14 </var>
    <var id="x78"> 8 9 13 14 </var>
    <var id="x79"> 0 4 9 14 </var>
    <var id="x80"> 9 </var>
    <var id="x81"> 4 11 14 </var>
    <var id="x82"> 4 8 11 13 14 </var>
    <var as="x62" id="x83"/>
    <var id="x84"> 0 4 8 9 14 </var>
    <var id="x85"> 1 3 8 14 </var>
    <var id="x86"> 1 4 14 </var>
    <var id="x87"> 1 10 </var>
    <var id="x88"> 4 8 11 </var>
    <var id="x89"> 1 3 11 </var>
    <var id="x90"> 4 8 10 14 </var>
    <var id="x91"> 1 4 8 14 </var>
    <var id="x92"> 0 1 4 </var>
    <var id="x93"> 1 5 13 </var>
    <var id="x94"> 1 5 7 12 </var>
    <var id="x95"> 1 4 7 </var>
    <var id="x96"> 1 4 7 12 </var>
    <var id="x97"> 0 1 12 13 </var>
    <var id="x98"> 0 4 12 </var>
    <var id="x99"> 0 1 3 11 </var>
    <var id="x100"> 1 3 12 </var>
    <var id="x101"> 0 1 11 </var>
    <var id="x102"> 2 11 12 </var>
    <var id="x103"> 0 10 12 </var>
    <var id="x104"> 1 2 10 </var>
    <var id="x105"> 0 10 </var>
  </variables>
  <constraints>
    <group>
      <allDifferent> %... </allDifferent>
      <args> x0 x1 x2 x3 x4 x5 x6 </args>
      <args> x7 x8 x9 x10 x11 x12 x13 x14 </args>
      <args> x15 x16 x17 x18 x19 x20 x21 </args>
      <args> x22 x23 x24 x25 x26 x27 x28 </args>
      <args> x29 x30 x31 x32 x33 x34 x35 </args>
      <args> x36 x37 x38 x39 x40 x41 x42 </args>
      <args> x43 x44 x45 x46 x47 x48 x49 </args>
      <args> x50 x51 x52 x53 x54 x55 x56 </args>
      <args> x57 x58 x59 x60 x61 x62 x63 </args>
      <args> x64 x65 x66 x67 x68 x69 x70 </args>
      <args> x71 x72 x73 x74 x75 x76 x77 </args>
      <args> x78 x79 x80 x81 x82 x83 x84 </args>
      <args> x85 x86 x87 x88 x89 x90 x91 </args>
      <args> x92 x93 x94 x95 x96 x97 x98 </args>
      <args> x99 x100 x101 x102 x103 x104 x105 </args>
      <args> x7 x22 x43 x64 x71 x92 x99 </args>
      <args> x0 x8 x50 x57 x78 x85 x93 </args>
      <args> x1 x15 x23 x51 x72 x79 x86 </args>
      <args> x9 x24 x36 x73 x80 x87 x94 </args>
      <args> x10 x25 x37 x44 x52 x65 x88 </args>
      <args> x26 x29 x45 x53 x58 x81 x95 </args>
      <args> x2 x38 x59 x66 x74 x96 x100 </args>
      <args> x3 x11 x27 x30 x46 x54 x101 </args>
      <args> x4 x12 x16 x31 x55 x82 x102 </args>
      <args> x5 x17 x39 x56 x60 x89 x97 </args>
      <args> x18 x32 x61 x67 x90 x98 x103 </args>
      <args> x6 x19 x33 x40 x47 x75 x104 </args>
      <args> x34 x41 x48 x62 x68 x76 x83 </args>
      <args> x13 x20 x42 x49 x69 x77 x84 x105 </args>
      <args> x14 x21 x28 x35 x63 x70 x91 </args>
    </group>
  </constraints>
</instance>

